50
2 0 1
3 0 1
4 1 1
4 2 1
4 3 1
5 3 1
6 4 1
7 0 1
7 2 1
7 5 1
8 0 1
8 1 1
8 4 1
8 6 1
8 7 1
9 0 1
9 2 1
9 3 1
9 4 1
9 7 1
9 8 1
10 1 1
10 2 1
10 4 1
10 6 1
10 8 1
11 0 1
11 1 1
11 2 1
11 3 1
11 8 1
11 9 1
11 10 1
12 0 1
12 1 1
12 5 1
12 7 1
12 10 1
13 3 1
13 6 1
13 7 1
13 9 1
13 10 1
13 12 1
14 1 1
14 3 1
14 4 1
14 6 1
15 1 1
15 3 1
15 5 1
15 6 1
15 9 1
15 12 1
15 13 1
15 14 1
16 3 1
16 5 1
16 6 1
16 7 1
16 10 1
16 14 1
16 15 1
17 0 1
17 1 1
17 2 1
17 3 1
17 5 1
17 6 1
17 7 1
17 8 1
17 10 1
17 12 1
17 14 1
17 16 1
18 3 1
18 4 1
18 5 1
18 6 1
18 7 1
18 9 1
18 10 1
18 11 1
18 12 1
18 13 1
18 14 1
19 3 1
19 8 1
19 10 1
19 11 1
19 12 1
19 13 1
19 14 1
19 15 1
19 16 1
19 18 1
20 0 1
20 5 1
20 6 1
20 7 1
20 11 1
20 14 1
20 15 1
20 19 1
21 0 1
21 1 1
21 4 1
21 5 1
21 6 1
21 8 1
21 10 1
21 12 1
21 13 1
21 19 1
21 20 1
22 1 1
22 4 1
22 7 1
22 9 1
22 12 1
22 15 1
22 17 1
23 0 1
23 1 1
23 3 1
23 4 1
23 7 1
23 8 1
23 12 1
23 13 1
23 14 1
23 15 1
23 18 1
23 22 1
24 1 1
24 2 1
24 3 1
24 5 1
24 6 1
24 7 1
24 8 1
24 9 1
24 10 1
24 11 1
24 12 1
24 15 1
24 18 1
24 19 1
24 21 1
24 23 1
25 0 1
25 2 1
25 3 1
25 4 1
25 6 1
25 7 1
25 8 1
25 9 1
25 11 1
25 13 1
25 15 1
25 17 1
25 21 1
25 22 1
26 1 1
26 4 1
26 5 1
26 6 1
26 9 1
26 10 1
26 11 1
26 17 1
26 20 1
26 21 1
26 22 1
26 23 1
26 25 1
27 0 1
27 1 1
27 2 1
27 8 1
27 9 1
27 11 1
27 16 1
27 17 1
27 18 1
27 22 1
27 23 1
27 24 1
27 25 1
28 2 1
28 4 1
28 5 1
28 7 1
28 11 1
28 13 1
28 14 1
28 16 1
28 17 1
28 20 1
28 22 1
28 26 1
29 0 1
29 1 1
29 2 1
29 5 1
29 6 1
29 8 1
29 9 1
29 12 1
29 15 1
29 17 1
29 18 1
29 20 1
29 23 1
29 24 1
29 27 1
30 0 1
30 3 1
30 4 1
30 6 1
30 10 1
30 13 1
30 17 1
30 18 1
30 20 1
30 25 1
30 27 1
30 29 1
31 0 1
31 1 1
31 5 1
31 6 1
31 9 1
31 11 1
31 13 1
31 16 1
31 18 1
31 28 1
31 30 1
32 0 1
32 3 1
32 4 1
32 5 1
32 7 1
32 8 1
32 9 1
32 10 1
32 11 1
32 12 1
32 13 1
32 20 1
32 25 1
32 27 1
32 28 1
33 0 1
33 1 1
33 2 1
33 3 1
33 4 1
33 5 1
33 11 1
33 13 1
33 15 1
33 17 1
33 19 1
33 20 1
33 21 1
33 25 1
33 27 1
33 28 1
33 30 1
33 31 1
34 2 1
34 3 1
34 5 1
34 6 1
34 7 1
34 8 1
34 10 1
34 11 1
34 15 1
34 16 1
34 17 1
34 20 1
34 23 1
34 24 1
34 27 1
34 28 1
34 31 1
34 33 1
35 1 1
35 3 1
35 5 1
35 9 1
35 10 1
35 11 1
35 16 1
35 18 1
35 20 1
35 22 1
35 23 1
35 24 1
35 25 1
35 27 1
35 28 1
35 29 1
35 30 1
35 31 1
35 33 1
36 2 1
36 3 1
36 10 1
36 11 1
36 12 1
36 13 1
36 14 1
36 15 1
36 17 1
36 19 1
36 22 1
36 23 1
36 24 1
36 25 1
36 26 1
36 27 1
36 29 1
36 30 1
36 32 1
36 34 1
37 2 1
37 4 1
37 5 1
37 8 1
37 10 1
37 13 1
37 16 1
37 18 1
37 19 1
37 22 1
37 23 1
37 27 1
37 29 1
37 31 1
37 32 1
37 35 1
37 36 1
38 0 1
38 1 1
38 3 1
38 5 1
38 6 1
38 7 1
38 8 1
38 10 1
38 12 1
38 18 1
38 19 1
38 21 1
38 22 1
38 24 1
38 25 1
38 27 1
38 28 1
38 32 1
38 33 1
38 37 1
39 1 1
39 2 1
39 3 1
39 7 1
39 8 1
39 9 1
39 10 1
39 11 1
39 13 1
39 18 1
39 23 1
39 25 1
39 26 1
39 28 1
39 29 1
39 31 1
39 32 1
39 33 1
39 35 1
39 36 1
39 38 1
40 2 1
40 3 1
40 4 1
40 6 1
40 8 1
40 11 1
40 12 1
40 15 1
40 16 1
40 17 1
40 19 1
40 20 1
40 21 1
40 22 1
40 27 1
40 28 1
40 38 1
41 2 1
41 3 1
41 4 1
41 5 1
41 7 1
41 8 1
41 12 1
41 13 1
41 16 1
41 18 1
41 20 1
41 24 1
41 28 1
41 29 1
41 30 1
41 31 1
41 33 1
41 38 1
42 4 1
42 6 1
42 17 1
42 20 1
42 21 1
42 22 1
42 24 1
42 25 1
42 27 1
42 28 1
42 31 1
42 38 1
42 40 1
43 0 1
43 2 1
43 3 1
43 4 1
43 5 1
43 6 1
43 7 1
43 8 1
43 9 1
43 12 1
43 14 1
43 15 1
43 17 1
43 18 1
43 20 1
43 21 1
43 23 1
43 24 1
43 25 1
43 26 1
43 29 1
43 30 1
43 31 1
43 34 1
43 37 1
43 38 1
43 40 1
43 41 1
44 0 1
44 1 1
44 2 1
44 3 1
44 6 1
44 8 1
44 9 1
44 10 1
44 11 1
44 13 1
44 14 1
44 15 1
44 16 1
44 17 1
44 18 1
44 25 1
44 27 1
44 29 1
44 30 1
44 31 1
44 33 1
44 34 1
44 35 1
44 36 1
44 37 1
45 4 1
45 5 1
45 6 1
45 7 1
45 9 1
45 10 1
45 11 1
45 14 1
45 17 1
45 18 1
45 20 1
45 23 1
45 24 1
45 26 1
45 28 1
45 32 1
45 34 1
45 35 1
45 36 1
45 39 1
45 41 1
45 42 1
45 44 1
46 1 1
46 3 1
46 4 1
46 5 1
46 7 1
46 10 1
46 14 1
46 18 1
46 19 1
46 20 1
46 21 1
46 22 1
46 26 1
46 29 1
46 32 1
46 34 1
46 36 1
46 39 1
46 40 1
46 42 1
46 43 1
46 45 1
47 1 1
47 4 1
47 6 1
47 8 1
47 13 1
47 15 1
47 16 1
47 17 1
47 18 1
47 19 1
47 20 1
47 22 1
47 27 1
47 28 1
47 31 1
47 32 1
47 34 1
47 38 1
47 39 1
47 40 1
47 41 1
47 42 1
47 43 1
47 44 1
47 45 1
48 0 1
48 2 1
48 3 1
48 5 1
48 6 1
48 10 1
48 11 1
48 13 1
48 15 1
48 16 1
48 18 1
48 19 1
48 20 1
48 21 1
48 23 1
48 24 1
48 26 1
48 29 1
48 30 1
48 32 1
48 34 1
48 36 1
48 37 1
48 38 1
48 40 1
48 42 1
48 44 1
48 47 1
49 0 1
49 2 1
49 3 1
49 5 1
49 7 1
49 9 1
49 12 1
49 13 1
49 20 1
49 21 1
49 27 1
49 29 1
49 38 1
49 39 1
49 40 1
49 48 1
